2,3
3,9
5,5
7,2
8,8
10,5
12,2
13,9
16,0
18,3
20,5
22,7
24,9
27,1
29,4
31,6
33,8
36,0
37,1
37,1
37,1
37,1
37,1
37,1
37,1
37,1
37,1
37,1
37,1
37,1
37,1
37,1
37,1
37,1
37,1
37,1
37,1
37,1
37,1
37,1
37,1
37,1
37,1
0,0
